coords = array2d(1..42, 1..2, [232, 409, 11, 328, 788, 948, 996, 220, 334, 372,
    692, 558, 546, 683, 888, 480, 719, 233, 702, 141, 373, 780, 886,
    75, 134, 401, 854, 858, 765, 497, 445, 293, 941, 110, 871, 454,
    670, 684, 845, 743, 73, 825, 778, 504, 944, 472, 595, 818, 624,
    140, 846, 425, 302, 952, 750, 42, 561, 28, 998, 508, 941, 718,
    332, 902, 291, 475, 888, 735, 772, 571, 453, 736, 220, 959, 318,
    577, 840, 705, 634, 951, 131, 13, 538, 643]);

n = 42;

